Version identifier: 22.1.0.0 | 2022-03-09 | 1a383f8ce
CPXPARAM_Threads                                 1
CPXPARAM_MIP_Strategy_VariableSelect             3
CPXPARAM_TimeLimit                               599.99998849999997
1 of 1 MIP starts provided solutions.
MIP start 'm1' defined initial solution with objective 1.0000.
Tried aggregator 1 time.
MIP Presolve eliminated 13 rows and 0 columns.
MIP Presolve modified 180 coefficients.
Reduced MIP has 1807 rows, 6000 columns, and 109837 nonzeros.
Reduced MIP has 6000 binaries, 0 generals, 0 SOSs, and 0 indicators.
Presolve time = 0.14 sec. (207.99 ticks)
Probing time = 0.02 sec. (17.72 ticks)
Tried aggregator 1 time.
Detecting symmetries...
MIP Presolve modified 13 coefficients.
Reduced MIP has 1807 rows, 6000 columns, and 110084 nonzeros.
Reduced MIP has 6000 binaries, 0 generals, 0 SOSs, and 0 indicators.
Presolve time = 0.11 sec. (158.38 ticks)
Probing time = 0.02 sec. (17.75 ticks)
Clique table members: 1279.
MIP emphasis: balance optimality and feasibility.
MIP search method: dynamic search.
Parallel mode: none, using 1 thread.
Root relaxation solution time = 5.82 sec. (7779.91 ticks)

        Nodes                                         Cuts/
   Node  Left     Objective  IInf  Best Integer    Best Bound    ItCnt     Gap

*     0+    0                            1.0000    45150.0000              --- 
      0     0      300.0000  1278        1.0000      300.0000    17738     --- 
      0     0      300.0000  1210        1.0000       Cuts: 9    31467     --- 
      0     0      300.0000  1151        1.0000      Cuts: 27    41620     --- 
      0     0      300.0000  1214        1.0000      Cuts: 16    62300     --- 
      0     0      300.0000  1265        1.0000      Cuts: 32    88261     --- 
*     0+    0                           58.0000      300.0000           417.24%
*     0+    0                          106.0000      300.0000           183.02%
*     0+    0                          151.0000      300.0000            98.68%
*     0+    0                          209.0000      300.0000            43.54%
      0     0        cutoff            209.0000      300.0000    88261   43.54%
Detecting symmetries...
      0     2      300.0000   797      209.0000      300.0000    88261   43.54%
Elapsed time = 90.19 sec. (110273.60 ticks, tree = 0.01 MB, solutions = 5)
      1     3      300.0000  1100      209.0000      300.0000    99728   43.54%
      2     4      300.0000  1207      209.0000      300.0000   107475   43.54%
      3     5      300.0000  1173      209.0000      300.0000   114445   43.54%
      4     6      300.0000  1176      209.0000      300.0000   122658   43.54%
      5     7      300.0000  1192      209.0000      300.0000   123884   43.54%
      6     8      300.0000  1173      209.0000      300.0000   123979   43.54%
      7     9      300.0000  1231      209.0000      300.0000   124323   43.54%
      8    10      300.0000  1197      209.0000      300.0000   124436   43.54%
      9    11      300.0000  1201      209.0000      300.0000   124587   43.54%
     12    14      300.0000  1238      209.0000      300.0000   125706   43.54%
Elapsed time = 106.80 sec. (129497.07 ticks, tree = 0.07 MB, solutions = 5)
     14    16      300.0000  1191      209.0000      300.0000   126214   43.54%
     17    19      300.0000  1218      209.0000      300.0000   127827   43.54%
     20    22      300.0000  1217      209.0000      300.0000   129940   43.54%
     22    24      300.0000  1219      209.0000      300.0000   130554   43.54%
     25    27      300.0000  1197      209.0000      300.0000   131555   43.54%
     28    30      300.0000  1211      209.0000      300.0000   133510   43.54%
     30    32      300.0000  1204      209.0000      300.0000   134585   43.54%
     32    34      300.0000  1249      209.0000      300.0000   136883   43.54%
     35    37      300.0000  1171      209.0000      300.0000   138684   43.54%
     37    39      300.0000  1195      209.0000      300.0000   139212   43.54%
Elapsed time = 142.89 sec. (169805.23 ticks, tree = 0.13 MB, solutions = 5)
     40    42      300.0000  1155      209.0000      300.0000   140199   43.54%
     43    45      300.0000  1137      209.0000      300.0000   141253   43.54%
     46    48      300.0000  1090      209.0000      300.0000   143218   43.54%
     49    51      300.0000  1095      209.0000      300.0000   145377   43.54%
     50    52      300.0000  1107      209.0000      300.0000   146192   43.54%
     53    55      300.0000  1086      209.0000      300.0000   147059   43.54%
     56    57      300.0000  1081      209.0000      300.0000   149869   43.54%
     58    59      300.0000  1083      209.0000      300.0000   150867   43.54%
     61    62      300.0000  1193      209.0000      300.0000   154005   43.54%
     64    64      299.0000  1104      209.0000      300.0000   159674   43.54%
Elapsed time = 154.90 sec. (183789.77 ticks, tree = 0.19 MB, solutions = 5)
     67    67      300.0000  1104      209.0000      300.0000   160475   43.54%
     70    69      300.0000  1176      209.0000      300.0000   162404   43.54%
     71    70      300.0000  1172      209.0000      300.0000   173525   43.54%
     73    72      300.0000  1135      209.0000      300.0000   175407   43.54%
     75    74      300.0000  1055      209.0000      300.0000   178850   43.54%
     76    75      300.0000  1064      209.0000      300.0000   179190   43.54%
     78    76      299.0000  1140      209.0000      300.0000   188098   43.54%
     80    77      299.0000  1152      209.0000      300.0000   196909   43.54%
     82    78      299.0000  1127      209.0000      300.0000   200765   43.54%
     84    80      300.0000  1080      209.0000      300.0000   202223   43.54%
Elapsed time = 179.54 sec. (212731.65 ticks, tree = 0.23 MB, solutions = 5)
     86    82      300.0000  1027      209.0000      300.0000   210793   43.54%
     87    82      299.0000  1122      209.0000      300.0000   216636   43.54%
     89    83      299.0000  1040      209.0000      300.0000   222536   43.54%
     91    84      299.0000  1047      209.0000      300.0000   228194   43.54%
     93    85      299.0000  1070      209.0000      300.0000   231673   43.54%
     95    86      299.6059  1034      209.0000      300.0000   234563   43.54%
     96    86      299.0000  1142      209.0000      300.0000   242885   43.54%
     98    87      298.6312   999      209.0000      300.0000   253981   43.54%
    101    89      298.3991   972      209.0000      300.0000   255805   43.54%
    104    91      298.8316   978      209.0000      300.0000   264261   43.54%
Elapsed time = 193.89 sec. (229031.32 ticks, tree = 0.26 MB, solutions = 5)
    106    93      298.4879   974      209.0000      300.0000   265825   43.54%
    108    95      298.8371   977      209.0000      300.0000   269088   43.54%
    111    98      299.0000  1040      209.0000      300.0000   273604   43.54%
    113    99      298.0000  1026      209.0000      300.0000   293745   43.54%
    115   100      279.0000   871      209.0000      300.0000   296816   43.54%
    119   101      296.0000   939      209.0000      300.0000   298624   43.54%
    123   104      296.0000   935      209.0000      300.0000   299547   43.54%
    126   107      296.0000   935      209.0000      300.0000   300923   43.54%
    129   108      295.0000   929      209.0000      300.0000   303896   43.54%
    132   110      296.0000   943      209.0000      300.0000   307570   43.54%
Elapsed time = 207.66 sec. (244541.95 ticks, tree = 0.31 MB, solutions = 5)
    134   111      296.0000   942      209.0000      300.0000   315049   43.54%
    136   112      296.0000   942      209.0000      300.0000   316797   43.54%
    137   112      295.0000   978      209.0000      300.0000   321836   43.54%
    139   113      295.7687   918      209.0000      300.0000   330182   43.54%
    143   116      295.8333   922      209.0000      300.0000   332329   43.54%
    145   117      295.7933   789      209.0000      300.0000   337814   43.54%
    148   120      295.0000   788      209.0000      300.0000   339047   43.54%
    151   123      295.0000   867      209.0000      300.0000   340538   43.54%
    154   126      295.0000   828      209.0000      300.0000   342001   43.54%
    159   128      294.6512   772      209.0000      300.0000   344151   43.54%
Elapsed time = 217.97 sec. (256086.84 ticks, tree = 0.36 MB, solutions = 5)
    163   129      293.6063   727      209.0000      300.0000   345841   43.54%
    166   131      292.0000   745      209.0000      300.0000   350131   43.54%
    167   132      292.0000   675      209.0000      300.0000   354114   43.54%
    171   135      291.0000   645      209.0000      300.0000   355866   43.54%
    176   137      290.0000   543      209.0000      300.0000   357117   43.54%
    180   141      290.0000   556      209.0000      300.0000   357615   43.54%
    185   146      290.0000   641      209.0000      300.0000   359190   43.54%
    191   151      290.0000   590      209.0000      300.0000   360180   43.54%
    196   156      290.0000   598      209.0000      300.0000   360962   43.54%
    201   159      290.0000   586      209.0000      300.0000   362112   43.54%
Elapsed time = 229.53 sec. (268364.50 ticks, tree = 0.44 MB, solutions = 5)
    206   161      288.2700   572      209.0000      300.0000   365228   43.54%
    213   166      286.0000   474      209.0000      300.0000   367818   43.54%
    218   171      286.0000   485      209.0000      300.0000   368899   43.54%
    226   176      285.0000   476      209.0000      300.0000   371139   43.54%
    233   182      285.0000   383      209.0000      300.0000   372068   43.54%
    240   187      284.0000   339      209.0000      300.0000   373741   43.54%
    250   191      284.0000   285      209.0000      300.0000   375013   43.54%
    262   197      284.0000   302      209.0000      300.0000   376616   43.54%
    272   203      284.0000   213      209.0000      300.0000   377459   43.54%
    286   206      284.0000   203      209.0000      300.0000   378800   43.54%
Elapsed time = 240.30 sec. (278992.87 ticks, tree = 0.56 MB, solutions = 5)
    303   207      284.0000   103      209.0000      300.0000   381749   43.54%
    308   208      300.0000  1041      209.0000      300.0000   397430   43.54%
    310   209      299.0000  1178      209.0000      300.0000   402926   43.54%
    312   210      299.0000  1022      209.0000      300.0000   404987   43.54%
    314   211      299.0000  1119      209.0000      300.0000   407972   43.54%
    316   212      299.0000  1084      209.0000      300.0000   410433   43.54%
    318   213      299.0000  1076      209.0000      300.0000   412433   43.54%
    320   214      299.0000  1086      209.0000      300.0000   416052   43.54%
    322   215      299.0000  1022      209.0000      300.0000   418152   43.54%
    327   218      299.0000  1121      209.0000      300.0000   424723   43.54%
Elapsed time = 271.05 sec. (315544.81 ticks, tree = 0.60 MB, solutions = 5)
    335   224      300.0000  1003      209.0000      300.0000   429601   43.54%
    340   225      299.0000  1058      209.0000      300.0000   436727   43.54%
    347   231      298.0000   983      209.0000      300.0000   440777   43.54%
    356   240      298.0000  1014      209.0000      300.0000   443898   43.54%
    360   243      297.0000  1041      209.0000      300.0000   451894   43.54%
    369   250      297.0000   967      209.0000      300.0000   456542   43.54%
    377   258      297.0000   946      209.0000      300.0000   460855   43.54%
    378   258      296.7945   904      209.0000      300.0000   473466   43.54%
    380   259      296.0000   924      209.0000      300.0000   484886   43.54%
    390   264      296.0000   939      209.0000      300.0000   488336   43.54%
Elapsed time = 315.07 sec. (367918.70 ticks, tree = 0.73 MB, solutions = 5)
    400   272      296.0000   873      209.0000      300.0000   491717   43.54%
    415   283      246.0000   404      209.0000      300.0000   499280   43.54%
    476   326      246.0000   113      209.0000      300.0000   502977   43.54%
    485   332      300.0000  1047      209.0000      300.0000   513186   43.54%
    486   333      300.0000  1160      209.0000      300.0000   519581   43.54%
    489   335      299.0000  1167      209.0000      300.0000   528025   43.54%
    496   340      297.7208  1010      209.0000      300.0000   534075   43.54%
    500   343      296.0000  1024      209.0000      300.0000   536660   43.54%
    510   350      295.0000   875      209.0000      300.0000   546730   43.54%
    519   357      293.0000   697      209.0000      300.0000   552183   43.54%
Elapsed time = 357.80 sec. (417575.61 ticks, tree = 0.98 MB, solutions = 5)
    520   358      293.0000   684      209.0000      300.0000   552942   43.54%
    537   363      292.0000   638      209.0000      300.0000   565094   43.54%
    558   362    infeasible            209.0000      300.0000   572418   43.54%
    578   364      292.0000   630      209.0000      300.0000   579822   43.54%
    583   363      299.8000  1048      209.0000      300.0000   593714   43.54%
    591   368      297.0000  1014      209.0000      300.0000   598938   43.54%
    600   377      297.0000   837      209.0000      300.0000   602324   43.54%
    609   386      297.0000   787      209.0000      300.0000   609513   43.54%
    617   392      295.6667   980      209.0000      300.0000   615429   43.54%
    624   397      294.0000   952      209.0000      300.0000   623337   43.54%
Elapsed time = 397.76 sec. (463394.26 ticks, tree = 1.08 MB, solutions = 5)
    633   404      292.0000   753      209.0000      300.0000   626286   43.54%
    648   417      291.0000   728      209.0000      300.0000   630158   43.54%
    660   424      286.0000   481      209.0000      300.0000   638904   43.54%
    704   437      279.0000   244      209.0000      300.0000   643886   43.54%
    734   451      300.0000  1179      209.0000      300.0000   652063   43.54%
    739   456      300.0000  1194      209.0000      300.0000   659538   43.54%
    744   460      300.0000  1121      209.0000      300.0000   664636   43.54%
    750   464      300.0000  1075      209.0000      300.0000   678942   43.54%
    758   469      299.3682   983      209.0000      300.0000   684637   43.54%
    760   470      299.0000  1107      209.0000      300.0000   686460   43.54%
Elapsed time = 443.58 sec. (515899.66 ticks, tree = 1.28 MB, solutions = 5)
    764   473      299.4266  1027      209.0000      300.0000   695977   43.54%
    770   477      300.0000  1062      209.0000      300.0000   713225   43.54%
    776   481      300.0000  1072      209.0000      300.0000   718845   43.54%
    778   482      299.0000   978      209.0000      300.0000   732407   43.54%
    784   485      299.4075  1054      209.0000      300.0000   738895   43.54%
    789   489      300.0000  1071      209.0000      300.0000   746334   43.54%
    791   490      300.0000  1078      209.0000      300.0000   748641   43.54%
    794   492      300.0000  1052      209.0000      300.0000   757051   43.54%
    800   495      299.0000  1139      209.0000      300.0000   763635   43.54%
    805   498      300.0000  1036      209.0000      300.0000   769055   43.54%
Elapsed time = 484.56 sec. (564183.11 ticks, tree = 1.35 MB, solutions = 5)
    810   501      299.0000  1093      209.0000      300.0000   774253   43.54%
    818   506      299.3577  1026      209.0000      300.0000   781479   43.54%
    820   507      299.0000  1052      209.0000      300.0000   796193   43.54%
    826   510      299.3333  1001      209.0000      300.0000   804691   43.54%
    832   513      299.4283  1014      209.0000      300.0000   811667   43.54%
    838   516      299.4012  1051      209.0000      300.0000   819349   43.54%
    840   517      299.0000  1074      209.0000      300.0000   836335   43.54%
    844   520      300.0000  1083      209.0000      300.0000   844203   43.54%
    849   523      300.0000  1043      209.0000      300.0000   853934   43.54%
    856   527      299.5787  1063      209.0000      300.0000   859956   43.54%
Elapsed time = 538.35 sec. (624994.56 ticks, tree = 1.45 MB, solutions = 5)
    865   533      300.0000  1056      209.0000      300.0000   864724   43.54%
    868   535      299.8216  1033      209.0000      300.0000   875639   43.54%
    876   539      299.3981   896      209.0000      300.0000   884061   43.54%
    880   542      299.0000  1097      209.0000      300.0000   896364   43.54%
    887   547      300.0000  1053      209.0000      300.0000   901909   43.54%
    890   548      299.0000  1103      209.0000      300.0000   906441   43.54%
    898   552      300.0000  1045      209.0000      300.0000   910257   43.54%
Starting limited solution polishing.
    903   555      299.0000  1060      209.0000      300.0000   916896   43.54%
    909   559      299.2857  1030      209.0000      300.0000   930526   43.54%
    916   562    infeasible            209.0000      300.0000   935943   43.54%
Elapsed time = 577.25 sec. (670795.88 ticks, tree = 1.54 MB, solutions = 5)
    920   565      300.0000  1045      209.0000      300.0000   945246   43.54%
*   922+  564                          214.0000      300.0000            40.19%

Clique cuts applied:  88
Zero-half cuts applied:  21

Root node processing (before b&c):
  Real time             =   90.00 sec. (110116.60 ticks)
Sequential b&c:
  Real time             =  510.01 sec. (585090.15 ticks)
                          ------------
Total (root+branch&cut) =  600.01 sec. (695206.75 ticks)
Primal:	214
Dual:	300
Status:	Feasible
Time:	600.03
Sequence:
	13
	0
	15
	4
	10
	5
	0
	15
	4
	10
	5
	10
	5
	11
	7
	0
	10
	0
	2
	10
	5
	15
	0
	15
	7
	0
	15
	0
	10
	4
	8
	10
	5
	2
	15
	5
	10
	5
	15
	2
	5
	10
	5
	10
	7
	15
	0
	5
	10
	4
	15
	0
	0
	10
	4
	10
	8
	0
	15
	7
	10
	4
	0
	15
	7
	10
	5
	5
	10
	7
	15
	0
	1
	10
	7
	15
	0
	10
	6
	15
	2
	5
	10
	0
	10
	7
	0
	15
	7
	10
	4
	13
	5
	15
	2
	15
	5
	10
	7
	5
	10
	8
	4
	10
	2
	15
	5
	10
	0
	15
	3
	10
	0
	15
	7
	10
	1
	15
	2
	10
	0
	2
	10
	5
	15
	2
	15
	0
	1
	15
	2
	10
	5
	5
	10
	7
	11
	0
	15
	5
	10
	7
	10
	0
	15
	2
	10
	5
	6
	10
	7
	10
	0
	11
	2
	15
	5
	10
	6
	7
	10
	5
	10
	0
	15
	2
	15
	4
	0
	5
	10
	2
	15
	0
	0
	15
	3
	15
	5
	0
	10
	4
	15
	0
	10
	7
	15
	0
	15
	7
	10
	4
	10
	8
	15
	0
	7
	10
	5
	4
	10
	7
	15
	0
	15
	7
	10
	5
	15
	3
	0
	15
	8
	10
